NAME: cuum250.tsp
TYPE: TSP
COMMENT: User-generated TSP file
DIMENSION: 250
EDGE_WEIGHT_TYPE: EUC_2D
NODE_COORD_SECTION
1 32.0 78.0
2 15.0 10.0
3 55.0 240.0
4 239.0 136.0
5 218.0 127.0
6 132.0 218.0
7 202.0 56.0
8 226.0 239.0
9 54.0 182.0
10 87.0 192.0
11 51.0 21.0
12 110.0 200.0
13 99.0 58.0
14 70.0 213.0
15 202.0 231.0
16 123.0 206.0
17 145.0 190.0
18 112.0 49.0
19 73.0 197.0
20 116.0 172.0
21 7.0 177.0
22 66.0 246.0
23 94.0 194.0
24 112.0 71.0
25 53.0 112.0
26 244.0 92.0
27 77.0 121.0
28 21.0 105.0
29 39.0 124.0
30 125.0 63.0
31 60.0 86.0
32 62.0 63.0
33 188.0 67.0
34 10.0 5.0
35 216.0 10.0
36 131.0 84.0
37 186.0 181.0
38 74.0 205.0
39 159.0 245.0
40 41.0 210.0
41 59.0 243.0
42 165.0 91.0
43 9.0 220.0
44 136.0 123.0
45 112.0 95.0
46 86.0 186.0
47 124.0 210.0
48 185.0 230.0
49 153.0 199.0
50 85.0 52.0
51 26.0 166.0
52 174.0 161.0
53 4.0 109.0
54 13.0 242.0
55 206.0 90.0
56 190.0 32.0
57 166.0 148.0
58 128.0 198.0
59 38.0 136.0
60 182.0 198.0
61 60.0 59.0
62 113.0 11.0
63 100.0 158.0
64 139.0 38.0
65 189.0 28.0
66 247.0 43.0
67 14.0 134.0
68 149.0 19.0
69 209.0 191.0
70 90.0 42.0
71 5.0 150.0
72 16.0 83.0
73 185.0 41.0
74 152.0 2.0
75 22.0 221.0
76 72.0 94.0
77 81.0 230.0
78 218.0 128.0
79 111.0 41.0
80 39.0 143.0
81 33.0 37.0
82 140.0 185.0
83 91.0 5.0
84 134.0 163.0
85 215.0 147.0
86 92.0 177.0
87 194.0 2.0
88 18.0 27.0
89 241.0 141.0
90 98.0 11.0
91 162.0 250.0
92 189.0 141.0
93 112.0 222.0
94 167.0 116.0
95 205.0 208.0
96 208.0 16.0
97 98.0 133.0
98 206.0 64.0
99 238.0 138.0
100 48.0 13.0
101 34.0 233.0
102 168.0 45.0
103 147.0 164.0
104 240.0 138.0
105 214.0 215.0
106 134.0 218.0
107 95.0 65.0
108 163.0 72.0
109 95.0 103.0
110 243.0 152.0
111 84.0 230.0
112 219.0 156.0
113 22.0 26.0
114 228.0 154.0
115 144.0 222.0
116 171.0 74.0
117 146.0 172.0
118 199.0 144.0
119 250.0 120.0
120 182.0 115.0
121 193.0 79.0
122 126.0 205.0
123 90.0 39.0
124 169.0 141.0
125 73.0 246.0
126 242.0 109.0
127 25.0 24.0
128 13.0 166.0
129 199.0 62.0
130 179.0 47.0
131 72.0 191.0
132 214.0 10.0
133 4.0 41.0
134 60.0 39.0
135 249.0 116.0
136 134.0 193.0
137 200.0 227.0
138 79.0 161.0
139 76.0 125.0
140 51.0 152.0
141 217.0 174.0
142 85.0 115.0
143 148.0 83.0
144 242.0 198.0
145 2.0 125.0
146 246.0 114.0
147 11.0 51.0
148 102.0 41.0
149 182.0 55.0
150 11.0 118.0
151 65.0 157.0
152 234.0 48.0
153 193.0 207.0
154 99.0 68.0
155 238.0 73.0
156 64.0 64.0
157 119.0 224.0
158 109.0 82.0
159 177.0 121.0
160 198.0 167.0
161 53.0 174.0
162 91.0 134.0
163 114.0 84.0
164 17.0 22.0
165 124.0 135.0
166 33.0 107.0
167 121.0 234.0
168 124.0 130.0
169 4.0 188.0
170 245.0 80.0
171 125.0 146.0
172 140.0 242.0
173 199.0 242.0
174 208.0 233.0
175 51.0 217.0
176 140.0 18.0
177 93.0 72.0
178 115.0 156.0
179 245.0 75.0
180 13.0 31.0
181 156.0 100.0
182 88.0 209.0
183 151.0 21.0
184 136.0 181.0
185 107.0 209.0
186 155.0 34.0
187 241.0 13.0
188 207.0 202.0
189 90.0 147.0
190 85.0 27.0
191 186.0 215.0
192 239.0 101.0
193 143.0 44.0
194 39.0 36.0
195 173.0 194.0
196 28.0 115.0
197 10.0 98.0
198 31.0 158.0
199 52.0 117.0
200 197.0 80.0
201 106.0 217.0
202 226.0 177.0
203 37.0 112.0
204 167.0 133.0
205 214.0 180.0
206 44.0 214.0
207 191.0 131.0
208 51.0 217.0
209 200.0 150.0
210 92.0 58.0
211 25.0 89.0
212 172.0 149.0
213 167.0 204.0
214 43.0 226.0
215 9.0 157.0
216 17.0 136.0
217 134.0 162.0
218 196.0 140.0
219 218.0 208.0
220 11.0 136.0
221 246.0 136.0
222 162.0 63.0
223 209.0 103.0
224 82.0 134.0
225 149.0 129.0
226 62.0 209.0
227 121.0 250.0
228 248.0 183.0
229 26.0 10.0
230 50.0 89.0
231 30.0 177.0
232 19.0 250.0
233 39.0 202.0
234 220.0 42.0
235 228.0 145.0
236 62.0 20.0
237 217.0 233.0
238 108.0 184.0
239 214.0 179.0
240 12.0 195.0
241 218.0 190.0
242 219.0 247.0
243 104.0 130.0
244 68.0 95.0
245 5.0 127.0
246 37.0 119.0
247 7.0 150.0
248 148.0 194.0
249 88.0 59.0
250 193.0 228.0
EOF





